//Implementando a funcao objetivo
max: 44982.6629*(1 +y[1][1]*-0.4+y[1][2]*-0.35+y[1][3]*-0.25+y[1][4]*-0.15+y[1][5]*0+y[1][6]*0.15+y[1][7]*0.25+y[1][8]*0.35+y[1][9]*0.4)+70917.3864*(1 +y[2][1]*-0.4+y[2][2]*-0.35+y[2][3]*-0.25+y[2][4]*-0.15+y[2][5]*0+y[2][6]*0.15+y[2][7]*0.25+y[2][8]*0.35+y[2][9]*0.4)+20125.4038*(1 +y[3][1]*-0.4+y[3][2]*-0.35+y[3][3]*-0.25+y[3][4]*-0.15+y[3][5]*0+y[3][6]*0.15+y[3][7]*0.25+y[3][8]*0.35+y[3][9]*0.4)+30803.3138*(1 +y[4][1]*-0.4+y[4][2]*-0.35+y[4][3]*-0.25+y[4][4]*-0.15+y[4][5]*0+y[4][6]*0.15+y[4][7]*0.25+y[4][8]*0.35+y[4][9]*0.4)+23077.5653*(1 +y[5][1]*/+y[5][2]*/+y[5][3]*/+y[5][4]*/+y[5][5]*0+y[5][6]*0+y[5][7]*0+y[5][8]*0+y[5][9]*0)+28720.088*(1 +y[6][1]*-0.4+y[6][2]*-0.35+y[6][3]*-0.25+y[6][4]*-0.15+y[6][5]*0+y[6][6]*0.15+y[6][7]*0.25+y[6][8]*0.35+y[6][9]*0.4)+89376.3129*(1 +y[7][1]*-0.225+y[7][2]*-0.2+y[7][3]*-0.16+y[7][4]*-0.09+y[7][5]*0+y[7][6]*0.09+y[7][7]*0.16+y[7][8]*0.2+y[7][9]*0.225)+77410.6982*(1 +y[8][1]*/+y[8][2]*/+y[8][3]*/+y[8][4]*/+y[8][5]*0+y[8][6]*0+y[8][7]*0+y[8][8]*0+y[8][9]*0)+52992.128*(1 +y[9][1]*-0.225+y[9][2]*-0.2+y[9][3]*-0.16+y[9][4]*-0.09+y[9][5]*0+y[9][6]*0.09+y[9][7]*0.16+y[9][8]*0.2+y[9][9]*0.225)+(6.7+(y[1][1]*(1-5)*0.5+y[1][2]*(2-5)*0.5+y[1][3]*(3-5)*0.5+y[1][4]*(4-5)*0.5+y[1][5]*(5-5)*0.5+y[1][6]*(6-5)*0.5+y[1][7]*(7-5)*0.5+y[1][8]*(8-5)*0.5+y[1][9]*(9-5)*0.5)*0.5)*7294.1002+(7+(y[2][1]*(1-5)*0.5+y[2][2]*(2-5)*0.5+y[2][3]*(3-5)*0.5+y[2][4]*(4-5)*0.5+y[2][5]*(5-5)*0.5+y[2][6]*(6-5)*0.5+y[2][7]*(7-5)*0.5+y[2][8]*(8-5)*0.5+y[2][9]*(9-5)*0.5)*0.5)*5865.0281+(4.5+(y[3][1]*(1-5)*0.5+y[3][2]*(2-5)*0.5+y[3][3]*(3-5)*0.5+y[3][4]*(4-5)*0.5+y[3][5]*(5-5)*0.5+y[3][6]*(6-5)*0.5+y[3][7]*(7-5)*0.5+y[3][8]*(8-5)*0.5+y[3][9]*(9-5)*0.5)*0.5)*5309.7842+(3+(y[4][1]*(1-5)*0.5+y[4][2]*(2-5)*0.5+y[4][3]*(3-5)*0.5+y[4][4]*(4-5)*0.5+y[4][5]*(5-5)*0.5+y[4][6]*(6-5)*0.5+y[4][7]*(7-5)*0.5+y[4][8]*(8-5)*0.5+y[4][9]*(9-5)*0.5)*0.5)*4799.7123+(5+(y[5][1]*(1-5)*0.5+y[5][2]*(2-5)*0.5+y[5][3]*(3-5)*0.5+y[5][4]*(4-5)*0.5+y[5][5]*(5-5)*0.5+y[5][6]*(6-5)*0.5+y[5][7]*(7-5)*0.5+y[5][8]*(8-5)*0.5+y[5][9]*(9-5)*0.5)*0.5)*6578.4314+(1.8+(y[6][1]*(1-5)*0.5+y[6][2]*(2-5)*0.5+y[6][3]*(3-5)*0.5+y[6][4]*(4-5)*0.5+y[6][5]*(5-5)*0.5+y[6][6]*(6-5)*0.5+y[6][7]*(7-5)*0.5+y[6][8]*(8-5)*0.5+y[6][9]*(9-5)*0.5)*0.5)*3568.4039+(3.6+(y[7][1]*(1-5)*0.5+y[7][2]*(2-5)*0.5+y[7][3]*(3-5)*0.5+y[7][4]*(4-5)*0.5+y[7][5]*(5-5)*0.5+y[7][6]*(6-5)*0.5+y[7][7]*(7-5)*0.5+y[7][8]*(8-5)*0.5+y[7][9]*(9-5)*0.5)*0.5)*4637.0529+(4.8+(y[8][1]*(1-5)*0.5+y[8][2]*(2-5)*0.5+y[8][3]*(3-5)*0.5+y[8][4]*(4-5)*0.5+y[8][5]*(5-5)*0.5+y[8][6]*(6-5)*0.5+y[8][7]*(7-5)*0.5+y[8][8]*(8-5)*0.5+y[8][9]*(9-5)*0.5)*0.5)*6078.9391+(1.2+(y[9][1]*(1-5)*0.5+y[9][2]*(2-5)*0.5+y[9][3]*(3-5)*0.5+y[9][4]*(4-5)*0.5+y[9][5]*(5-5)*0.5+y[9][6]*(6-5)*0.5+y[9][7]*(7-5)*0.5+y[9][8]*(8-5)*0.5+y[9][9]*(9-5)*0.5)*0.5)*3875.7685;

//Implementa Restricoes para y_ij unitarios
y[1][1]+y[1][2]+y[1][3]+y[1][4]+y[1][5]+y[1][6]+y[1][7]+y[1][8]+y[1][9]>=1;
y[2][1]+y[2][2]+y[2][3]+y[2][4]+y[2][5]+y[2][6]+y[2][7]+y[2][8]+y[2][9]>=1;
y[3][1]+y[3][2]+y[3][3]+y[3][4]+y[3][5]+y[3][6]+y[3][7]+y[3][8]+y[3][9]>=1;
y[4][1]+y[4][2]+y[4][3]+y[4][4]+y[4][5]+y[4][6]+y[4][7]+y[4][8]+y[4][9]>=1;
y[5][1]+y[5][2]+y[5][3]+y[5][4]+y[5][5]+y[5][6]+y[5][7]+y[5][8]+y[5][9]>=1;
y[6][1]+y[6][2]+y[6][3]+y[6][4]+y[6][5]+y[6][6]+y[6][7]+y[6][8]+y[6][9]>=1;
y[7][1]+y[7][2]+y[7][3]+y[7][4]+y[7][5]+y[7][6]+y[7][7]+y[7][8]+y[7][9]>=1;
y[8][1]+y[8][2]+y[8][3]+y[8][4]+y[8][5]+y[8][6]+y[8][7]+y[8][8]+y[8][9]>=1;
y[9][1]+y[9][2]+y[9][3]+y[9][4]+y[9][5]+y[9][6]+y[9][7]+y[9][8]+y[9][9]>=1;

y[1][1]+y[1][2]+y[1][3]+y[1][4]+y[1][5]+y[1][6]+y[1][7]+y[1][8]+y[1][9]<=1;
y[2][1]+y[2][2]+y[2][3]+y[2][4]+y[2][5]+y[2][6]+y[2][7]+y[2][8]+y[2][9]<=1;
y[3][1]+y[3][2]+y[3][3]+y[3][4]+y[3][5]+y[3][6]+y[3][7]+y[3][8]+y[3][9]<=1;
y[4][1]+y[4][2]+y[4][3]+y[4][4]+y[4][5]+y[4][6]+y[4][7]+y[4][8]+y[4][9]<=1;
y[5][1]+y[5][2]+y[5][3]+y[5][4]+y[5][5]+y[5][6]+y[5][7]+y[5][8]+y[5][9]<=1;
y[6][1]+y[6][2]+y[6][3]+y[6][4]+y[6][5]+y[6][6]+y[6][7]+y[6][8]+y[6][9]<=1;
y[7][1]+y[7][2]+y[7][3]+y[7][4]+y[7][5]+y[7][6]+y[7][7]+y[7][8]+y[7][9]<=1;
y[8][1]+y[8][2]+y[8][3]+y[8][4]+y[8][5]+y[8][6]+y[8][7]+y[8][8]+y[8][9]<=1;
y[9][1]+y[9][2]+y[9][3]+y[9][4]+y[9][5]+y[9][6]+y[9][7]+y[9][8]+y[9][9]<=1;

//Implementa Restricoes para um modulo por categoria
3+y[1][1]*(1-5)*0.5>=1;
3+y[1][2]*(2-5)*0.5>=1;
3+y[1][3]*(3-5)*0.5>=1;
3+y[1][4]*(4-5)*0.5>=1;
3+y[1][5]*(5-5)*0.5>=1;
3+y[1][6]*(6-5)*0.5>=1;
3+y[1][7]*(7-5)*0.5>=1;
3+y[1][8]*(8-5)*0.5>=1;
3+y[1][9]*(9-5)*0.5>=1;
3+y[2][1]*(1-5)*0.5>=1;
3+y[2][2]*(2-5)*0.5>=1;
3+y[2][3]*(3-5)*0.5>=1;
3+y[2][4]*(4-5)*0.5>=1;
3+y[2][5]*(5-5)*0.5>=1;
3+y[2][6]*(6-5)*0.5>=1;
3+y[2][7]*(7-5)*0.5>=1;
3+y[2][8]*(8-5)*0.5>=1;
3+y[2][9]*(9-5)*0.5>=1;
2+y[3][1]*(1-5)*0.5>=1;
2+y[3][2]*(2-5)*0.5>=1;
2+y[3][3]*(3-5)*0.5>=1;
2+y[3][4]*(4-5)*0.5>=1;
2+y[3][5]*(5-5)*0.5>=1;
2+y[3][6]*(6-5)*0.5>=1;
2+y[3][7]*(7-5)*0.5>=1;
2+y[3][8]*(8-5)*0.5>=1;
2+y[3][9]*(9-5)*0.5>=1;
3+y[4][1]*(1-5)*0.5>=1;
3+y[4][2]*(2-5)*0.5>=1;
3+y[4][3]*(3-5)*0.5>=1;
3+y[4][4]*(4-5)*0.5>=1;
3+y[4][5]*(5-5)*0.5>=1;
3+y[4][6]*(6-5)*0.5>=1;
3+y[4][7]*(7-5)*0.5>=1;
3+y[4][8]*(8-5)*0.5>=1;
3+y[4][9]*(9-5)*0.5>=1;
7+y[5][1]*(1-5)*0.5>=1;
7+y[5][2]*(2-5)*0.5>=1;
7+y[5][3]*(3-5)*0.5>=1;
7+y[5][4]*(4-5)*0.5>=1;
7+y[5][5]*(5-5)*0.5>=1;
7+y[5][6]*(6-5)*0.5>=1;
7+y[5][7]*(7-5)*0.5>=1;
7+y[5][8]*(8-5)*0.5>=1;
7+y[5][9]*(9-5)*0.5>=1;
2+y[6][1]*(1-5)*0.5>=1;
2+y[6][2]*(2-5)*0.5>=1;
2+y[6][3]*(3-5)*0.5>=1;
2+y[6][4]*(4-5)*0.5>=1;
2+y[6][5]*(5-5)*0.5>=1;
2+y[6][6]*(6-5)*0.5>=1;
2+y[6][7]*(7-5)*0.5>=1;
2+y[6][8]*(8-5)*0.5>=1;
2+y[6][9]*(9-5)*0.5>=1;
6+y[7][1]*(1-5)*0.5>=1;
6+y[7][2]*(2-5)*0.5>=1;
6+y[7][3]*(3-5)*0.5>=1;
6+y[7][4]*(4-5)*0.5>=1;
6+y[7][5]*(5-5)*0.5>=1;
6+y[7][6]*(6-5)*0.5>=1;
6+y[7][7]*(7-5)*0.5>=1;
6+y[7][8]*(8-5)*0.5>=1;
6+y[7][9]*(9-5)*0.5>=1;
10+y[8][1]*(1-5)*0.5>=1;
10+y[8][2]*(2-5)*0.5>=1;
10+y[8][3]*(3-5)*0.5>=1;
10+y[8][4]*(4-5)*0.5>=1;
10+y[8][5]*(5-5)*0.5>=1;
10+y[8][6]*(6-5)*0.5>=1;
10+y[8][7]*(7-5)*0.5>=1;
10+y[8][8]*(8-5)*0.5>=1;
10+y[8][9]*(9-5)*0.5>=1;
6+y[9][1]*(1-5)*0.5>=1;
6+y[9][2]*(2-5)*0.5>=1;
6+y[9][3]*(3-5)*0.5>=1;
6+y[9][4]*(4-5)*0.5>=1;
6+y[9][5]*(5-5)*0.5>=1;
6+y[9][6]*(6-5)*0.5>=1;
6+y[9][7]*(7-5)*0.5>=1;
6+y[9][8]*(8-5)*0.5>=1;
6+y[9][9]*(9-5)*0.5>=1;

Implementa restricao de draw positivo
(6.7+y[1][1]*(1-5)*0.5*0.5)*0.01>=0;
(6.7+y[1][2]*(2-5)*0.5*0.5)*0.01>=0;
(6.7+y[1][3]*(3-5)*0.5*0.5)*0.01>=0;
(6.7+y[1][4]*(4-5)*0.5*0.5)*0.01>=0;
(6.7+y[1][5]*(5-5)*0.5*0.5)*0.01>=0;
(6.7+y[1][6]*(6-5)*0.5*0.5)*0.01>=0;
(6.7+y[1][7]*(7-5)*0.5*0.5)*0.01>=0;
(6.7+y[1][8]*(8-5)*0.5*0.5)*0.01>=0;
(6.7+y[1][9]*(9-5)*0.5*0.5)*0.01>=0;
(7+y[2][1]*(1-5)*0.5*0.5)*0.01>=0;
(7+y[2][2]*(2-5)*0.5*0.5)*0.01>=0;
(7+y[2][3]*(3-5)*0.5*0.5)*0.01>=0;
(7+y[2][4]*(4-5)*0.5*0.5)*0.01>=0;
(7+y[2][5]*(5-5)*0.5*0.5)*0.01>=0;
(7+y[2][6]*(6-5)*0.5*0.5)*0.01>=0;
(7+y[2][7]*(7-5)*0.5*0.5)*0.01>=0;
(7+y[2][8]*(8-5)*0.5*0.5)*0.01>=0;
(7+y[2][9]*(9-5)*0.5*0.5)*0.01>=0;
(4.5+y[3][1]*(1-5)*0.5*0.5)*0.01>=0;
(4.5+y[3][2]*(2-5)*0.5*0.5)*0.01>=0;
(4.5+y[3][3]*(3-5)*0.5*0.5)*0.01>=0;
(4.5+y[3][4]*(4-5)*0.5*0.5)*0.01>=0;
(4.5+y[3][5]*(5-5)*0.5*0.5)*0.01>=0;
(4.5+y[3][6]*(6-5)*0.5*0.5)*0.01>=0;
(4.5+y[3][7]*(7-5)*0.5*0.5)*0.01>=0;
(4.5+y[3][8]*(8-5)*0.5*0.5)*0.01>=0;
(4.5+y[3][9]*(9-5)*0.5*0.5)*0.01>=0;
(3+y[4][1]*(1-5)*0.5*0.5)*0.01>=0;
(3+y[4][2]*(2-5)*0.5*0.5)*0.01>=0;
(3+y[4][3]*(3-5)*0.5*0.5)*0.01>=0;
(3+y[4][4]*(4-5)*0.5*0.5)*0.01>=0;
(3+y[4][5]*(5-5)*0.5*0.5)*0.01>=0;
(3+y[4][6]*(6-5)*0.5*0.5)*0.01>=0;
(3+y[4][7]*(7-5)*0.5*0.5)*0.01>=0;
(3+y[4][8]*(8-5)*0.5*0.5)*0.01>=0;
(3+y[4][9]*(9-5)*0.5*0.5)*0.01>=0;
(5+y[5][1]*(1-5)*0.5*0.5)*0.01>=0;
(5+y[5][2]*(2-5)*0.5*0.5)*0.01>=0;
(5+y[5][3]*(3-5)*0.5*0.5)*0.01>=0;
(5+y[5][4]*(4-5)*0.5*0.5)*0.01>=0;
(5+y[5][5]*(5-5)*0.5*0.5)*0.01>=0;
(5+y[5][6]*(6-5)*0.5*0.5)*0.01>=0;
(5+y[5][7]*(7-5)*0.5*0.5)*0.01>=0;
(5+y[5][8]*(8-5)*0.5*0.5)*0.01>=0;
(5+y[5][9]*(9-5)*0.5*0.5)*0.01>=0;
(1.8+y[6][1]*(1-5)*0.5*0.5)*0.01>=0;
(1.8+y[6][2]*(2-5)*0.5*0.5)*0.01>=0;
(1.8+y[6][3]*(3-5)*0.5*0.5)*0.01>=0;
(1.8+y[6][4]*(4-5)*0.5*0.5)*0.01>=0;
(1.8+y[6][5]*(5-5)*0.5*0.5)*0.01>=0;
(1.8+y[6][6]*(6-5)*0.5*0.5)*0.01>=0;
(1.8+y[6][7]*(7-5)*0.5*0.5)*0.01>=0;
(1.8+y[6][8]*(8-5)*0.5*0.5)*0.01>=0;
(1.8+y[6][9]*(9-5)*0.5*0.5)*0.01>=0;
(3.6+y[7][1]*(1-5)*0.5*0.5)*0.01>=0;
(3.6+y[7][2]*(2-5)*0.5*0.5)*0.01>=0;
(3.6+y[7][3]*(3-5)*0.5*0.5)*0.01>=0;
(3.6+y[7][4]*(4-5)*0.5*0.5)*0.01>=0;
(3.6+y[7][5]*(5-5)*0.5*0.5)*0.01>=0;
(3.6+y[7][6]*(6-5)*0.5*0.5)*0.01>=0;
(3.6+y[7][7]*(7-5)*0.5*0.5)*0.01>=0;
(3.6+y[7][8]*(8-5)*0.5*0.5)*0.01>=0;
(3.6+y[7][9]*(9-5)*0.5*0.5)*0.01>=0;
(4.8+y[8][1]*(1-5)*0.5*0.5)*0.01>=0;
(4.8+y[8][2]*(2-5)*0.5*0.5)*0.01>=0;
(4.8+y[8][3]*(3-5)*0.5*0.5)*0.01>=0;
(4.8+y[8][4]*(4-5)*0.5*0.5)*0.01>=0;
(4.8+y[8][5]*(5-5)*0.5*0.5)*0.01>=0;
(4.8+y[8][6]*(6-5)*0.5*0.5)*0.01>=0;
(4.8+y[8][7]*(7-5)*0.5*0.5)*0.01>=0;
(4.8+y[8][8]*(8-5)*0.5*0.5)*0.01>=0;
(4.8+y[8][9]*(9-5)*0.5*0.5)*0.01>=0;
(1.2+y[9][1]*(1-5)*0.5*0.5)*0.01>=0;
(1.2+y[9][2]*(2-5)*0.5*0.5)*0.01>=0;
(1.2+y[9][3]*(3-5)*0.5*0.5)*0.01>=0;
(1.2+y[9][4]*(4-5)*0.5*0.5)*0.01>=0;
(1.2+y[9][5]*(5-5)*0.5*0.5)*0.01>=0;
(1.2+y[9][6]*(6-5)*0.5*0.5)*0.01>=0;
(1.2+y[9][7]*(7-5)*0.5*0.5)*0.01>=0;
(1.2+y[9][8]*(8-5)*0.5*0.5)*0.01>=0;
(1.2+y[9][9]*(9-5)*0.5*0.5)*0.01>=0;

//Implementa restricao da variacao total no numero de modulos
y[1][1]*(1-5)*0.5+y[1][2]*(2-5)*0.5+y[1][3]*(3-5)*0.5+y[1][4]*(4-5)*0.5+y[1][5]*(5-5)*0.5+y[1][6]*(6-5)*0.5+y[1][7]*(7-5)*0.5+y[1][8]*(8-5)*0.5+y[1][9]*(9-5)*0.5+y[2][1]*(1-5)*0.5+y[2][2]*(2-5)*0.5+y[2][3]*(3-5)*0.5+y[2][4]*(4-5)*0.5+y[2][5]*(5-5)*0.5+y[2][6]*(6-5)*0.5+y[2][7]*(7-5)*0.5+y[2][8]*(8-5)*0.5+y[2][9]*(9-5)*0.5+y[3][1]*(1-5)*0.5+y[3][2]*(2-5)*0.5+y[3][3]*(3-5)*0.5+y[3][4]*(4-5)*0.5+y[3][5]*(5-5)*0.5+y[3][6]*(6-5)*0.5+y[3][7]*(7-5)*0.5+y[3][8]*(8-5)*0.5+y[3][9]*(9-5)*0.5+y[4][1]*(1-5)*0.5+y[4][2]*(2-5)*0.5+y[4][3]*(3-5)*0.5+y[4][4]*(4-5)*0.5+y[4][5]*(5-5)*0.5+y[4][6]*(6-5)*0.5+y[4][7]*(7-5)*0.5+y[4][8]*(8-5)*0.5+y[4][9]*(9-5)*0.5+y[5][1]*(1-5)*0.5+y[5][2]*(2-5)*0.5+y[5][3]*(3-5)*0.5+y[5][4]*(4-5)*0.5+y[5][5]*(5-5)*0.5+y[5][6]*(6-5)*0.5+y[5][7]*(7-5)*0.5+y[5][8]*(8-5)*0.5+y[5][9]*(9-5)*0.5+y[6][1]*(1-5)*0.5+y[6][2]*(2-5)*0.5+y[6][3]*(3-5)*0.5+y[6][4]*(4-5)*0.5+y[6][5]*(5-5)*0.5+y[6][6]*(6-5)*0.5+y[6][7]*(7-5)*0.5+y[6][8]*(8-5)*0.5+y[6][9]*(9-5)*0.5+y[7][1]*(1-5)*0.5+y[7][2]*(2-5)*0.5+y[7][3]*(3-5)*0.5+y[7][4]*(4-5)*0.5+y[7][5]*(5-5)*0.5+y[7][6]*(6-5)*0.5+y[7][7]*(7-5)*0.5+y[7][8]*(8-5)*0.5+y[7][9]*(9-5)*0.5+y[8][1]*(1-5)*0.5+y[8][2]*(2-5)*0.5+y[8][3]*(3-5)*0.5+y[8][4]*(4-5)*0.5+y[8][5]*(5-5)*0.5+y[8][6]*(6-5)*0.5+y[8][7]*(7-5)*0.5+y[8][8]*(8-5)*0.5+y[8][9]*(9-5)*0.5+y[9][1]*(1-5)*0.5+y[9][2]*(2-5)*0.5+y[9][3]*(3-5)*0.5+y[9][4]*(4-5)*0.5+y[9][5]*(5-5)*0.5+y[9][6]*(6-5)*0.5+y[9][7]*(7-5)*0.5+y[9][8]*(8-5)*0.5+y[9][9]*(9-5)*0.5>=0;

y[1][1]*(1-5)*0.5+y[1][2]*(2-5)*0.5+y[1][3]*(3-5)*0.5+y[1][4]*(4-5)*0.5+y[1][5]*(5-5)*0.5+y[1][6]*(6-5)*0.5+y[1][7]*(7-5)*0.5+y[1][8]*(8-5)*0.5+y[1][9]*(9-5)*0.5+y[2][1]*(1-5)*0.5+y[2][2]*(2-5)*0.5+y[2][3]*(3-5)*0.5+y[2][4]*(4-5)*0.5+y[2][5]*(5-5)*0.5+y[2][6]*(6-5)*0.5+y[2][7]*(7-5)*0.5+y[2][8]*(8-5)*0.5+y[2][9]*(9-5)*0.5+y[3][1]*(1-5)*0.5+y[3][2]*(2-5)*0.5+y[3][3]*(3-5)*0.5+y[3][4]*(4-5)*0.5+y[3][5]*(5-5)*0.5+y[3][6]*(6-5)*0.5+y[3][7]*(7-5)*0.5+y[3][8]*(8-5)*0.5+y[3][9]*(9-5)*0.5+y[4][1]*(1-5)*0.5+y[4][2]*(2-5)*0.5+y[4][3]*(3-5)*0.5+y[4][4]*(4-5)*0.5+y[4][5]*(5-5)*0.5+y[4][6]*(6-5)*0.5+y[4][7]*(7-5)*0.5+y[4][8]*(8-5)*0.5+y[4][9]*(9-5)*0.5+y[5][1]*(1-5)*0.5+y[5][2]*(2-5)*0.5+y[5][3]*(3-5)*0.5+y[5][4]*(4-5)*0.5+y[5][5]*(5-5)*0.5+y[5][6]*(6-5)*0.5+y[5][7]*(7-5)*0.5+y[5][8]*(8-5)*0.5+y[5][9]*(9-5)*0.5+y[6][1]*(1-5)*0.5+y[6][2]*(2-5)*0.5+y[6][3]*(3-5)*0.5+y[6][4]*(4-5)*0.5+y[6][5]*(5-5)*0.5+y[6][6]*(6-5)*0.5+y[6][7]*(7-5)*0.5+y[6][8]*(8-5)*0.5+y[6][9]*(9-5)*0.5+y[7][1]*(1-5)*0.5+y[7][2]*(2-5)*0.5+y[7][3]*(3-5)*0.5+y[7][4]*(4-5)*0.5+y[7][5]*(5-5)*0.5+y[7][6]*(6-5)*0.5+y[7][7]*(7-5)*0.5+y[7][8]*(8-5)*0.5+y[7][9]*(9-5)*0.5+y[8][1]*(1-5)*0.5+y[8][2]*(2-5)*0.5+y[8][3]*(3-5)*0.5+y[8][4]*(4-5)*0.5+y[8][5]*(5-5)*0.5+y[8][6]*(6-5)*0.5+y[8][7]*(7-5)*0.5+y[8][8]*(8-5)*0.5+y[8][9]*(9-5)*0.5+y[9][1]*(1-5)*0.5+y[9][2]*(2-5)*0.5+y[9][3]*(3-5)*0.5+y[9][4]*(4-5)*0.5+y[9][5]*(5-5)*0.5+y[9][6]*(6-5)*0.5+y[9][7]*(7-5)*0.5+y[9][8]*(8-5)*0.5+y[9][9]*(9-5)*0.5<=0;

//Implementa as restricoes de variavel binaria
bin y[1][1];
bin y[1][2];
bin y[1][3];
bin y[1][4];
bin y[1][5];
bin y[1][6];
bin y[1][7];
bin y[1][8];
bin y[1][9];
bin y[2][1];
bin y[2][2];
bin y[2][3];
bin y[2][4];
bin y[2][5];
bin y[2][6];
bin y[2][7];
bin y[2][8];
bin y[2][9];
bin y[3][1];
bin y[3][2];
bin y[3][3];
bin y[3][4];
bin y[3][5];
bin y[3][6];
bin y[3][7];
bin y[3][8];
bin y[3][9];
bin y[4][1];
bin y[4][2];
bin y[4][3];
bin y[4][4];
bin y[4][5];
bin y[4][6];
bin y[4][7];
bin y[4][8];
bin y[4][9];
bin y[5][1];
bin y[5][2];
bin y[5][3];
bin y[5][4];
bin y[5][5];
bin y[5][6];
bin y[5][7];
bin y[5][8];
bin y[5][9];
bin y[6][1];
bin y[6][2];
bin y[6][3];
bin y[6][4];
bin y[6][5];
bin y[6][6];
bin y[6][7];
bin y[6][8];
bin y[6][9];
bin y[7][1];
bin y[7][2];
bin y[7][3];
bin y[7][4];
bin y[7][5];
bin y[7][6];
bin y[7][7];
bin y[7][8];
bin y[7][9];
bin y[8][1];
bin y[8][2];
bin y[8][3];
bin y[8][4];
bin y[8][5];
bin y[8][6];
bin y[8][7];
bin y[8][8];
bin y[8][9];
bin y[9][1];
bin y[9][2];
bin y[9][3];
bin y[9][4];
bin y[9][5];
bin y[9][6];
bin y[9][7];
bin y[9][8];
bin y[9][9];
